\ Model Routes
\ LP format - for model browsing. Use MPS format to capture full model detail.
Maximize
  1533.228206194839 R{0,0} + 2591.679024458567 R{0,1}
   + 2591.679024458567 R{0,2} - 249.2301939667805 R{0,3}
   + 222.8649545650627 R{0,4} + 892.5014194710873 R{0,5}
   + 2524.891682528172 R{0,6} + 2192.420661446669 R{0,7}
   + 1851.098881391244 R{0,8} + 1898.389296374714 R{0,9}
   + 2167.928012354953 R{0,10} + 1255.464060834366 R{0,11}
   + 2340.324023900849 R{0,12} + 888.6589161995705 R{0,13}
   + 1517.775901605211 R{0,14} + 2902.286312551309 R{0,15}
   + 1506.70712660021 R{0,16} + 2531.894729437092 R{0,17}
   + 1628.103219507347 R{0,18} + 2569.554857041547 R{0,19}
   + 1322.803493235027 R{0,20} + 2624.588701997738 R{0,21}
   + 1222.800699738689 R{0,22} + 1776.622037492648 R{0,23}
   + 1666.605791690572 R{0,24} + 1630.143150331661 R{0,25}
   + 1763.854770451959 R{0,26} + 2365.778557863189 R{0,27}
   + 1151.281343772829 R{0,28} + 1185.886925465296 R{0,29}
   + 2624.588701997738 R{0,30} + 1691.571643176115 R{0,31}
   + 973.4396424640536 R{0,32} + 1525.842282057083 R{0,33}
   + 1361.42015340027 R{0,34} + 1168.929780217546 R{0,35}
   + 1185.886925465296 R{0,36} + 1707.046959651703 R{0,37}
   + 1432.712665872093 R{0,38} + 2241.080289646613 R{0,39}
   + 1222.178154716329 R{0,40} - 256.140831891889 R{1,0}
   + 216.3226429839851 R{1,1} + 843.8103196491563 R{1,2}
   + 659.5864726342306 R{1,3} + 824.6578992060915 R{1,4}
   + 460.5541483852699 R{1,5} + 926.7408743426711 R{1,6}
   + 334.9549933668259 R{1,7} + 420.8754345602882 R{1,8}
   + 982.7563858331237 R{1,9} + 1476.73533767868 R{1,10}
   - 107.5122843368563 R{1,11} + 748.3311292626968 R{1,12}
   - 338.4323687775873 R{1,13} + 949.1781466662389 R{1,14}
   + 759.854702190226 R{1,15} + 580.0488790507922 R{1,16}
   + 255.5939986692817 R{1,17} + 466.1512155265586 R{1,18}
   + 585.9913308458031 R{1,19} + 517.5046033384867 R{1,20}
   + 504.1973995251064 R{1,21} + 651.8887730375973 R{1,22}
   + 341.8754545678694 R{1,23} + 410.5749957917124 R{1,24}
   + 4.738527134175399 R{1,25} + 365.3937917454101 R{1,26}
   - 338.4323687775873 R{1,27} + 1191.43681604971 R{1,28}
   - 338.4323687775873 R{1,29} + 265.8858555293413 R{1,30}
   + 141.7406336297954 R{1,31} - 278.4443928850388 R{2,0}
   - 59.13410337035452 R{2,1} + 602.7748664658451 R{2,2}
   + 1100.505917706273 R{2,3} + 254.2765511022717 R{2,4}
   + 916.1789585751681 R{2,5} + 188.8677732867749 R{2,6}
   + 369.8364400655024 R{2,7} + 1061.902326721781 R{2,8}
   + 372.8637558201227 R{2,9} + 378.5986155728801 R{2,10}
   + 188.8677732867749 R{2,11} + 395.796393489625 R{2,12}
   + 1127.126554447374 R{2,13} + 208.8114131637435 R{2,14}
   + 188.8677732867749 R{2,15} + 140.9169682114691 R{2,16}
   + 1415.237292544839 R{2,17} + 1429.340271463377 R{2,18}
   + 834.4347832998242 R{2,19} + 254.2765511022717 R{2,20}
   - 307.0349591703183 R{2,21} + 1152.475970004852 R{2,22}
   + 465.2175846111744 R{2,23} + 983.4813305979085 R{2,24}
   - 260.2482995389823 R{3,0} + 459.0257104485919 R{3,1}
   + 838.3862215394925 R{3,2} + 524.7336099726307 R{3,3}
   + 554.4974361126286 R{3,4} + 223.2617065366273 R{3,5}
   + 728.116546683457 R{3,6} + 795.0766306426452 R{3,7}
   + 233.5554209456191 R{3,8} + 87.33320973292086 R{3,9}
   + 283.8709339805737 R{3,10} + 417.379237497106 R{3,11}
   + 402.7171052889481 R{3,12} + 536.558176520452 R{3,13}
   + 326.0666360185508 R{3,14} + 459.7475664578927 R{3,15}
   + 205.2152731628327 R{3,16} - 170.1944799385713 R{3,17}
   + 637.0316207394685 R{3,18} + 530.2848406522493 R{3,19}
   + 1011.370194371463 R{3,20} + 313.8064448756154 R{3,21}
   + 737.8799462627151 R{3,22} + 669.0938327770482 R{3,23}
   + 389.2878104681027 R{3,24} + 877.5561318673842 R{3,25}
   + 970.5845787361131 R{3,26} + 429.7610225491521 R{3,27}
   + 580.1459933491293 R{3,28} + 205.2152731628327 R{3,29}
   + 268.8531015465391 R{3,30} + 139.6278400045537 R{3,31}
   + 155.8400597456452 R{3,32} + 463.9774192634241 R{3,33}
   + 354.0512235422705 R{3,34} + 214.4043536425824 R{3,35}
   - 242.5208875955131 R{4,0} + 1066.379443184683 R{4,1}
   + 1576.196574514046 R{4,2} + 2039.10049209481 R{4,3}
   + 1274.36549094027 R{4,4} + 1614.759663885629 R{4,5}
   + 1204.892079014404 R{4,6} + 992.4026379834281 R{4,7}
   + 770.2768718544173 R{4,8} + 1700.298500032655 R{4,9}
   + 920.8106489695579 R{4,10} + 973.238767365546 R{4,11}
   + 749.841221303968 R{4,12} + 1514.737426582445 R{4,13}
   + 752.2582594873857 R{4,14} + 1397.69604966708 R{4,15}
   + 743.8749835695513 R{4,16} + 1536.836132199557 R{4,17}
   + 1426.446277766735 R{4,18} + 1305.509011879305 R{4,19}
   + 1689.967781614156 R{4,20} + 1377.310606390811 R{4,21}
   + 1353.317732921176 R{4,22} + 1524.648674362838 R{4,23}
   + 957.6721023660632 R{4,24} + 1600.37873589961 R{4,25}
   + 1355.284218695969 R{4,26} + 839.4232585314367 R{4,27}
   + 1668.329196930305 R{4,28} + 2366.117656348712 R{4,29}
   + 1658.980305308444 R{4,30} + 628.3482348901464 R{4,31}
   + 1028.919747225068 R{4,32} - 231.9775664337766 R{5,0}
   + 16.95807447907589 R{5,1} + 681.6552995357957 R{5,2}
   + 681.6552995357957 R{5,3} + 188.1987022846917 R{5,4}
   + 755.2312739703671 R{5,5} + 120.3131539476132 R{5,6}
   + 966.5045995759867 R{5,7} + 431.320762732033 R{5,8}
   + 1228.083638247371 R{5,9} + 134.6233508693342 R{5,10}
   + 408.9112821672148 R{5,11} + 966.5045995759867 R{5,12}
   + 157.5876755251344 R{5,13} - 151.7100903910153 R{5,14}
   + 791.9826396530693 R{5,15} - 55.35614020576372 R{5,16}
   + 1185.899924740106 R{5,17} + 399.2413009132903 R{5,18}
   + 588.5744970623763 R{5,19} + 920.806390509053 R{5,20}
   + 490.6602698167367 R{5,21} + 260.5129169695313 R{5,22}
   + 791.9826396530693 R{5,23} + 677.330453158663 R{5,24}
   + 257.808693882481 R{5,25} + 764.2437912157533 R{5,26}
   + 450.9235347497258 R{5,27} + 928.5925518293864 R{5,28}
   + 734.3685067575384 R{5,29} + 294.5148118149252 R{5,30}
   + 542.4896193974802 R{5,31} + 186.5316669266887 R{5,32}
   + 1459.226444355128 R{5,33} + 97.37582244960379 R{5,34}
   - 231.1436095783099 R{6,0} + 725.2317094322514 R{6,1}
   + 1161.159371164076 R{6,2} + 2431.373489173644 R{6,3}
   + 586.7338772706942 R{6,4} + 244.016948906571 R{6,5}
   + 708.0289482191356 R{6,6} + 1369.610943938234 R{6,7}
   + 1685.898677793253 R{6,8} + 1809.24593251259 R{6,9}
   + 1178.038525223124 R{6,10} + 1702.878202228779 R{6,11}
   + 1343.398980323019 R{6,12} + 1345.799297352517 R{6,13}
   + 1795.793862778085 R{6,14} + 1314.333692443448 R{6,15}
   + 1391.064518704817 R{6,16} + 1595.69203490375 R{6,17}
   + 1927.904222680725 R{6,18} + 1114.644991504666 R{6,19}
   + 965.083285707896 R{6,20} + 1927.904222680725 R{6,21}
   + 1723.239327534299 R{6,22} + 2192.508051149282 R{6,23}
   + 1331.738909276528 R{6,24} + 2294.203509214284 R{6,25}
   + 877.5743428516289 R{6,26} + 1181.861552391045 R{6,27}
   + 637.9308303892683 R{6,28} + 1942.032615255425 R{6,29}
   + 1399.379753805445 R{6,30} + 728.2614214149032 R{6,31}
   + 1156.744580817291 R{6,32}
Subject To
 R00: R{0,0} <= 1
 R01: R{0,1} <= 1
 R02: R{0,2} <= 1
 R03: R{0,3} <= 1
 R04: R{0,4} <= 1
 R05: R{0,5} <= 1
 R06: R{0,6} <= 1
 R07: R{0,7} <= 1
 R08: R{0,8} <= 1
 R09: R{0,9} <= 1
 R010: R{0,10} <= 1
 R011: R{0,11} <= 1
 R012: R{0,12} <= 1
 R013: R{0,13} <= 1
 R014: R{0,14} <= 1
 R015: R{0,15} <= 1
 R016: R{0,16} <= 1
 R017: R{0,17} <= 1
 R018: R{0,18} <= 1
 R019: R{0,19} <= 1
 R020: R{0,20} <= 1
 R021: R{0,21} <= 1
 R022: R{0,22} <= 1
 R023: R{0,23} <= 1
 R024: R{0,24} <= 1
 R025: R{0,25} <= 1
 R026: R{0,26} <= 1
 R027: R{0,27} <= 1
 R028: R{0,28} <= 1
 R029: R{0,29} <= 1
 R030: R{0,30} <= 1
 R031: R{0,31} <= 1
 R032: R{0,32} <= 1
 R033: R{0,33} <= 1
 R034: R{0,34} <= 1
 R035: R{0,35} <= 1
 R036: R{0,36} <= 1
 R037: R{0,37} <= 1
 R038: R{0,38} <= 1
 R039: R{0,39} <= 1
 R040: R{0,40} <= 1
 R041: R{1,0} <= 1
 R042: R{1,1} <= 1
 R043: R{1,2} <= 1
 R044: R{1,3} <= 1
 R045: R{1,4} <= 1
 R046: R{1,5} <= 1
 R047: R{1,6} <= 1
 R048: R{1,7} <= 1
 R049: R{1,8} <= 1
 R050: R{1,9} <= 1
 R051: R{1,10} <= 1
 R052: R{1,11} <= 1
 R053: R{1,12} <= 1
 R054: R{1,13} <= 1
 R055: R{1,14} <= 1
 R056: R{1,15} <= 1
 R057: R{1,16} <= 1
 R058: R{1,17} <= 1
 R059: R{1,18} <= 1
 R060: R{1,19} <= 1
 R061: R{1,20} <= 1
 R062: R{1,21} <= 1
 R063: R{1,22} <= 1
 R064: R{1,23} <= 1
 R065: R{1,24} <= 1
 R066: R{1,25} <= 1
 R067: R{1,26} <= 1
 R068: R{1,27} <= 1
 R069: R{1,28} <= 1
 R070: R{1,29} <= 1
 R071: R{1,30} <= 1
 R072: R{1,31} <= 1
 R073: R{2,0} <= 1
 R074: R{2,1} <= 1
 R075: R{2,2} <= 1
 R076: R{2,3} <= 1
 R077: R{2,4} <= 1
 R078: R{2,5} <= 1
 R079: R{2,6} <= 1
 R080: R{2,7} <= 1
 R081: R{2,8} <= 1
 R082: R{2,9} <= 1
 R083: R{2,10} <= 1
 R084: R{2,11} <= 1
 R085: R{2,12} <= 1
 R086: R{2,13} <= 1
 R087: R{2,14} <= 1
 R088: R{2,15} <= 1
 R089: R{2,16} <= 1
 R090: R{2,17} <= 1
 R091: R{2,18} <= 1
 R092: R{2,19} <= 1
 R093: R{2,20} <= 1
 R094: R{2,21} <= 1
 R095: R{2,22} <= 1
 R096: R{2,23} <= 1
 R097: R{2,24} <= 1
 R098: R{3,0} <= 1
 R099: R{3,1} <= 1
 R0100: R{3,2} <= 1
 R0101: R{3,3} <= 1
 R0102: R{3,4} <= 1
 R0103: R{3,5} <= 1
 R0104: R{3,6} <= 1
 R0105: R{3,7} <= 1
 R0106: R{3,8} <= 1
 R0107: R{3,9} <= 1
 R0108: R{3,10} <= 1
 R0109: R{3,11} <= 1
 R0110: R{3,12} <= 1
 R0111: R{3,13} <= 1
 R0112: R{3,14} <= 1
 R0113: R{3,15} <= 1
 R0114: R{3,16} <= 1
 R0115: R{3,17} <= 1
 R0116: R{3,18} <= 1
 R0117: R{3,19} <= 1
 R0118: R{3,20} <= 1
 R0119: R{3,21} <= 1
 R0120: R{3,22} <= 1
 R0121: R{3,23} <= 1
 R0122: R{3,24} <= 1
 R0123: R{3,25} <= 1
 R0124: R{3,26} <= 1
 R0125: R{3,27} <= 1
 R0126: R{3,28} <= 1
 R0127: R{3,29} <= 1
 R0128: R{3,30} <= 1
 R0129: R{3,31} <= 1
 R0130: R{3,32} <= 1
 R0131: R{3,33} <= 1
 R0132: R{3,34} <= 1
 R0133: R{3,35} <= 1
 R0134: R{4,0} <= 1
 R0135: R{4,1} <= 1
 R0136: R{4,2} <= 1
 R0137: R{4,3} <= 1
 R0138: R{4,4} <= 1
 R0139: R{4,5} <= 1
 R0140: R{4,6} <= 1
 R0141: R{4,7} <= 1
 R0142: R{4,8} <= 1
 R0143: R{4,9} <= 1
 R0144: R{4,10} <= 1
 R0145: R{4,11} <= 1
 R0146: R{4,12} <= 1
 R0147: R{4,13} <= 1
 R0148: R{4,14} <= 1
 R0149: R{4,15} <= 1
 R0150: R{4,16} <= 1
 R0151: R{4,17} <= 1
 R0152: R{4,18} <= 1
 R0153: R{4,19} <= 1
 R0154: R{4,20} <= 1
 R0155: R{4,21} <= 1
 R0156: R{4,22} <= 1
 R0157: R{4,23} <= 1
 R0158: R{4,24} <= 1
 R0159: R{4,25} <= 1
 R0160: R{4,26} <= 1
 R0161: R{4,27} <= 1
 R0162: R{4,28} <= 1
 R0163: R{4,29} <= 1
 R0164: R{4,30} <= 1
 R0165: R{4,31} <= 1
 R0166: R{4,32} <= 1
 R0167: R{5,0} <= 1
 R0168: R{5,1} <= 1
 R0169: R{5,2} <= 1
 R0170: R{5,3} <= 1
 R0171: R{5,4} <= 1
 R0172: R{5,5} <= 1
 R0173: R{5,6} <= 1
 R0174: R{5,7} <= 1
 R0175: R{5,8} <= 1
 R0176: R{5,9} <= 1
 R0177: R{5,10} <= 1
 R0178: R{5,11} <= 1
 R0179: R{5,12} <= 1
 R0180: R{5,13} <= 1
 R0181: R{5,14} <= 1
 R0182: R{5,15} <= 1
 R0183: R{5,16} <= 1
 R0184: R{5,17} <= 1
 R0185: R{5,18} <= 1
 R0186: R{5,19} <= 1
 R0187: R{5,20} <= 1
 R0188: R{5,21} <= 1
 R0189: R{5,22} <= 1
 R0190: R{5,23} <= 1
 R0191: R{5,24} <= 1
 R0192: R{5,25} <= 1
 R0193: R{5,26} <= 1
 R0194: R{5,27} <= 1
 R0195: R{5,28} <= 1
 R0196: R{5,29} <= 1
 R0197: R{5,30} <= 1
 R0198: R{5,31} <= 1
 R0199: R{5,32} <= 1
 R0200: R{5,33} <= 1
 R0201: R{5,34} <= 1
 R0202: R{6,0} <= 1
 R0203: R{6,1} <= 1
 R0204: R{6,2} <= 1
 R0205: R{6,3} <= 1
 R0206: R{6,4} <= 1
 R0207: R{6,5} <= 1
 R0208: R{6,6} <= 1
 R0209: R{6,7} <= 1
 R0210: R{6,8} <= 1
 R0211: R{6,9} <= 1
 R0212: R{6,10} <= 1
 R0213: R{6,11} <= 1
 R0214: R{6,12} <= 1
 R0215: R{6,13} <= 1
 R0216: R{6,14} <= 1
 R0217: R{6,15} <= 1
 R0218: R{6,16} <= 1
 R0219: R{6,17} <= 1
 R0220: R{6,18} <= 1
 R0221: R{6,19} <= 1
 R0222: R{6,20} <= 1
 R0223: R{6,21} <= 1
 R0224: R{6,22} <= 1
 R0225: R{6,23} <= 1
 R0226: R{6,24} <= 1
 R0227: R{6,25} <= 1
 R0228: R{6,26} <= 1
 R0229: R{6,27} <= 1
 R0230: R{6,28} <= 1
 R0231: R{6,29} <= 1
 R0232: R{6,30} <= 1
 R0233: R{6,31} <= 1
 R0234: R{6,32} <= 1
 R1_0: R{0,0} + R{0,1} + R{0,2} + R{0,3} + R{0,4} + R{0,5} + R{0,6}
   + R{0,7} + R{0,8} + R{0,9} + R{0,10} + R{0,11} + R{0,12} + R{0,13}
   + R{0,14} + R{0,15} + R{0,16} + R{0,17} + R{0,18} + R{0,19} + R{0,20}
   + R{0,21} + R{0,22} + R{0,23} + R{0,24} + R{0,25} + R{0,26} + R{0,27}
   + R{0,28} + R{0,29} + R{0,30} + R{0,31} + R{0,32} + R{0,33} + R{0,34}
   + R{0,35} + R{0,36} + R{0,37} + R{0,38} + R{0,39} + R{0,40} <= 1
 R1_1: R{1,0} + R{1,1} + R{1,2} + R{1,3} + R{1,4} + R{1,5} + R{1,6}
   + R{1,7} + R{1,8} + R{1,9} + R{1,10} + R{1,11} + R{1,12} + R{1,13}
   + R{1,14} + R{1,15} + R{1,16} + R{1,17} + R{1,18} + R{1,19} + R{1,20}
   + R{1,21} + R{1,22} + R{1,23} + R{1,24} + R{1,25} + R{1,26} + R{1,27}
   + R{1,28} + R{1,29} + R{1,30} + R{1,31} <= 1
 R1_2: R{2,0} + R{2,1} + R{2,2} + R{2,3} + R{2,4} + R{2,5} + R{2,6}
   + R{2,7} + R{2,8} + R{2,9} + R{2,10} + R{2,11} + R{2,12} + R{2,13}
   + R{2,14} + R{2,15} + R{2,16} + R{2,17} + R{2,18} + R{2,19} + R{2,20}
   + R{2,21} + R{2,22} + R{2,23} + R{2,24} <= 1
 R1_3: R{3,0} + R{3,1} + R{3,2} + R{3,3} + R{3,4} + R{3,5} + R{3,6}
   + R{3,7} + R{3,8} + R{3,9} + R{3,10} + R{3,11} + R{3,12} + R{3,13}
   + R{3,14} + R{3,15} + R{3,16} + R{3,17} + R{3,18} + R{3,19} + R{3,20}
   + R{3,21} + R{3,22} + R{3,23} + R{3,24} + R{3,25} + R{3,26} + R{3,27}
   + R{3,28} + R{3,29} + R{3,30} + R{3,31} + R{3,32} + R{3,33} + R{3,34}
   + R{3,35} <= 1
 R1_4: R{4,0} + R{4,1} + R{4,2} + R{4,3} + R{4,4} + R{4,5} + R{4,6}
   + R{4,7} + R{4,8} + R{4,9} + R{4,10} + R{4,11} + R{4,12} + R{4,13}
   + R{4,14} + R{4,15} + R{4,16} + R{4,17} + R{4,18} + R{4,19} + R{4,20}
   + R{4,21} + R{4,22} + R{4,23} + R{4,24} + R{4,25} + R{4,26} + R{4,27}
   + R{4,28} + R{4,29} + R{4,30} + R{4,31} + R{4,32} <= 1
 R1_5: R{5,0} + R{5,1} + R{5,2} + R{5,3} + R{5,4} + R{5,5} + R{5,6}
   + R{5,7} + R{5,8} + R{5,9} + R{5,10} + R{5,11} + R{5,12} + R{5,13}
   + R{5,14} + R{5,15} + R{5,16} + R{5,17} + R{5,18} + R{5,19} + R{5,20}
   + R{5,21} + R{5,22} + R{5,23} + R{5,24} + R{5,25} + R{5,26} + R{5,27}
   + R{5,28} + R{5,29} + R{5,30} + R{5,31} + R{5,32} + R{5,33} + R{5,34}
   <= 1
 R1_6: R{6,0} + R{6,1} + R{6,2} + R{6,3} + R{6,4} + R{6,5} + R{6,6}
   + R{6,7} + R{6,8} + R{6,9} + R{6,10} + R{6,11} + R{6,12} + R{6,13}
   + R{6,14} + R{6,15} + R{6,16} + R{6,17} + R{6,18} + R{6,19} + R{6,20}
   + R{6,21} + R{6,22} + R{6,23} + R{6,24} + R{6,25} + R{6,26} + R{6,27}
   + R{6,28} + R{6,29} + R{6,30} + R{6,31} + R{6,32} <= 1
 R2_0: 7 R{0,0} + 7 R{0,1} + 7 R{0,2} + 7 R{0,6} + 7 R{0,7} + 7 R{0,8}
   + 7 R{0,9} + 7 R{0,10} + 7 R{0,11} + 7 R{0,12} + 7 R{0,14} + 7 R{0,15}
   + 7 R{0,16} + 7 R{0,17} + 7 R{0,18} + 7 R{0,19} + 7 R{0,20} + 7 R{0,21}
   + 7 R{0,22} + 7 R{0,23} + 7 R{0,24} + 7 R{0,25} + 7 R{0,26} + 7 R{0,27}
   + 7 R{0,28} + 7 R{0,30} + 7 R{0,31} + 7 R{0,32} + 7 R{0,33} + 7 R{0,38}
   + 7 R{0,39} + 7 R{0,40} <= 7
 R2_1: 10 R{0,17} + 10 R{1,3} + 10 R{1,5} + 10 R{1,7} + 10 R{1,9}
   + 10 R{1,12} + 10 R{2,4} + 10 R{2,6} + 10 R{2,11} + 10 R{2,15}
   + 10 R{2,20} + 10 R{2,22} + 10 R{3,1} + 10 R{3,2} + 10 R{3,3}
   + 10 R{3,4} + 10 R{3,5} + 10 R{3,6} + 10 R{3,7} + 10 R{3,9} + 10 R{3,16}
   + 10 R{3,18} + 10 R{3,19} + 10 R{3,21} + 10 R{3,22} + 10 R{3,25}
   + 10 R{3,27} + 10 R{3,29} + 10 R{3,31} + 10 R{3,35} + 10 R{5,11}
   + 10 R{5,18} + 10 R{5,27} + 10 R{5,30} + 10 R{5,31} + 10 R{5,32}
   + 10 R{5,33} + 10 R{5,34} + 10 R{6,9} + 10 R{6,19} + 10 R{6,22}
   + 10 R{6,29} + 10 R{6,31} <= 10
 R2_2: 15 R{2,17} + 15 R{6,3} + 15 R{6,25} <= 16
 R2_3: 4 R{1,3} + 4 R{1,8} + 4 R{1,25} + 4 R{5,1} + 4 R{5,2} + 4 R{5,3}
   + 4 R{5,5} + 4 R{5,8} + 4 R{5,10} + 4 R{5,14} + 4 R{5,16} + 4 R{5,18}
   + 4 R{5,19} + 4 R{5,20} + 4 R{5,24} + 4 R{5,25} + 4 R{5,28} + 4 R{5,30}
   + 4 R{6,8} + 4 R{6,28} + 4 R{6,30} <= 4
 R2_4: <= 0
 R2_5: 5 R{5,1} + 5 R{5,2} + 5 R{5,3} + 5 R{5,4} + 5 R{5,5} + 5 R{5,6}
   + 5 R{5,8} + 5 R{5,9} + 5 R{5,16} + 5 R{5,21} + 5 R{5,22} + 5 R{5,29}
   + 5 R{5,30} + 5 R{5,31} <= 5
 R2_6: 10 R{0,13} + 10 R{1,1} + 10 R{1,2} + 10 R{1,3} + 10 R{1,4}
   + 10 R{1,5} + 10 R{1,6} + 10 R{1,7} + 10 R{1,9} + 10 R{1,10} + 10 R{2,8}
   + 10 R{2,17} + 10 R{2,18} + 10 R{5,9} + 10 R{5,17} + 10 R{5,33} <= 10
 R2_7: 6 R{1,1} + 6 R{1,3} <= 6
 R2_8: <= 0
 R2_9: 12 R{4,1} + 12 R{4,2} + 12 R{4,3} + 12 R{4,4} + 12 R{4,5}
   + 12 R{4,6} + 12 R{4,7} + 12 R{4,8} + 12 R{4,10} + 12 R{4,12}
   + 12 R{4,13} + 12 R{4,14} + 12 R{4,15} + 12 R{4,16} + 12 R{4,17}
   + 12 R{4,18} + 12 R{4,20} + 12 R{4,21} + 12 R{4,22} + 12 R{4,23}
   + 12 R{4,24} + 12 R{4,25} + 12 R{4,26} + 12 R{4,28} + 12 R{4,29}
   + 12 R{4,30} + 12 R{4,31} + 12 R{4,32} <= 12
 R2_10: 8 R{0,7} + 8 R{0,21} + 8 R{0,30} + 8 R{0,40} + 8 R{6,1} + 8 R{6,2}
   + 8 R{6,5} + 8 R{6,12} + 8 R{6,19} + 8 R{6,27} <= 8
 R2_11: 15 R{0,8} + 15 R{4,19} + 15 R{4,27} + 15 R{6,13} + 15 R{6,25}
   + 15 R{6,32} <= 15
 R2_12: <= 0
 R2_13: <= 0
 R2_14: <= 0
 R2_15: 11 R{0,0} + 11 R{0,1} + 11 R{0,2} + 11 R{0,12} + 11 R{0,14}
   + 11 R{0,22} + 11 R{0,24} + 11 R{0,28} + 11 R{0,32} + 11 R{0,38}
   + 11 R{4,1} + 11 R{4,2} + 11 R{4,5} + 10 R{4,7} + 11 R{4,15}
   + 11 R{4,26} + 10 R{4,29} <= 11
 R2_16: 5 R{0,6} + 5 R{0,7} + 5 R{0,8} + 5 R{0,10} + 5 R{0,11} + 5 R{0,15}
   + 5 R{0,16} + 5 R{0,17} + 5 R{0,19} + 5 R{0,21} + 5 R{0,30} + 5 R{0,31}
   + 5 R{0,35} + 5 R{0,37} + 5 R{0,39} + 5 R{4,7} + 5 R{4,9} + 5 R{4,13}
   + 5 R{4,16} + 5 R{4,18} + 5 R{4,22} + 5 R{4,23} + 5 R{4,24} + 5 R{4,28}
   + 5 R{4,29} + 5 R{6,9} + 5 R{6,13} + 5 R{6,22} + 5 R{6,29} <= 5
 R2_17: 11 R{0,12} + 11 R{0,16} + 11 R{0,18} + 11 R{0,20} + 11 R{0,28}
   + 11 R{0,32} + 11 R{0,34} + 11 R{0,35} + 11 R{2,17} + 11 R{2,18}
   + 11 R{2,22} + 11 R{3,32} <= 11
 R2_18: <= 0
 R2_19: 11 R{0,6} + 11 R{0,7} + 11 R{0,8} + 11 R{0,10} + 11 R{0,12}
   + 11 R{0,15} + 11 R{0,19} + 11 R{0,21} + 11 R{0,30} + 11 R{1,8}
   + 11 R{2,5} + 10 R{2,7} + 10 R{2,14} + 11 R{3,3} + 11 R{4,1} + 11 R{4,2}
   + 11 R{4,3} + 11 R{4,4} + 11 R{4,5} + 11 R{4,15} + 11 R{4,18}
   + 11 R{4,20} + 11 R{4,25} + 11 R{4,26} + 11 R{4,29} + 11 R{5,4}
   + 11 R{5,21} + 11 R{5,22} + 11 R{5,31} + 11 R{6,8} <= 11
 R2_20: 13 R{0,18} + 13 R{1,14} + 13 R{2,3} + 10 R{2,9} + 13 R{2,13}
   + 13 R{2,19} + 13 R{2,23} + 13 R{5,8} + 13 R{5,29} + 13 R{6,1}
   + 13 R{6,2} + 13 R{6,3} + 13 R{6,7} + 13 R{6,10} + 13 R{6,12}
   + 13 R{6,14} + 13 R{6,15} + 13 R{6,16} + 13 R{6,17} + 13 R{6,18}
   + 13 R{6,19} + 13 R{6,20} + 13 R{6,21} + 13 R{6,23} + 13 R{6,25} <= 13
 R2_21: <= 0
 R2_22: 10 R{0,23} + 10 R{0,26} + 10 R{0,27} + 10 R{0,33} + 10 R{0,38}
   + 10 R{2,17} + 10 R{3,26} + 10 R{4,6} + 10 R{4,8} + 10 R{4,9}
   + 10 R{4,11} + 10 R{4,12} + 10 R{4,14} + 10 R{4,19} + 10 R{4,27}
   + 10 R{4,28} + 10 R{4,29} + 10 R{6,3} + 10 R{6,25} <= 10
 R2_23: 14 R{0,6} + 14 R{0,16} + 14 R{3,8} + 14 R{4,3} + 14 R{4,30}
   + 14 R{6,2} + 14 R{6,3} + 14 R{6,7} + 14 R{6,9} + 14 R{6,11}
   + 14 R{6,14} + 14 R{6,17} + 14 R{6,18} + 14 R{6,21} + 14 R{6,22}
   + 14 R{6,23} + 14 R{6,24} + 14 R{6,29} <= 14
 R2_24: 10 R{0,38} + 10 R{3,1} + 10 R{3,2} + 10 R{3,4} + 10 R{3,22}
   + 10 R{3,27} + 10 R{3,30} + 10 R{6,3} + 10 R{6,8} + 10 R{6,25}
   + 8 R{6,30} <= 10
 R2_25: 13 R{0,0} + 13 R{0,1} + 13 R{0,2} + 13 R{0,6} + 13 R{0,7}
   + 13 R{0,8} + 13 R{0,9} + 13 R{0,10} + 13 R{0,11} + 13 R{0,14}
   + 13 R{0,15} + 13 R{0,17} + 13 R{0,19} + 13 R{0,21} + 13 R{0,22}
   + 13 R{0,23} + 13 R{0,24} + 13 R{0,25} + 13 R{0,27} + 13 R{0,30}
   + 13 R{0,31} + 13 R{0,37} + 13 R{0,39} + 13 R{1,20} + 13 R{2,8}
   + 13 R{2,24} + 13 R{3,6} + 10 R{3,12} + 13 R{3,15} + 13 R{3,26}
   + 13 R{3,33} + 13 R{4,1} + 13 R{4,2} + 13 R{4,3} + 13 R{4,4} + 13 R{4,5}
   + 13 R{4,7} + 13 R{4,10} + 13 R{4,13} + 13 R{4,15} + 13 R{4,17}
   + 13 R{4,18} + 13 R{4,20} + 13 R{4,21} + 13 R{4,23} + 13 R{4,24}
   + 13 R{4,25} + 13 R{4,26} + 13 R{4,29} + 13 R{4,30} + 13 R{4,32} <= 13
 R2_26: <= 6
 R2_27: <= 5
 R2_28: <= 0
 R2_29: <= 0
 R2_30: <= 0
 R2_31: <= 0
 R2_32: 7 R{0,4} + 7 R{0,5} + 7 R{0,13} + 7 R{2,8} + 7 R{5,5} + 7 R{5,7}
   + 7 R{5,9} + 7 R{5,10} + 7 R{5,12} + 7 R{5,17} + 7 R{5,18} + 7 R{5,25}
   + 7 R{5,33} + 7 R{6,30} <= 7
 R2_33: 12 R{1,14} + 12 R{1,17} + 12 R{1,20} + 12 R{1,21} + 12 R{1,22}
   + 12 R{1,23} + 12 R{1,31} + 12 R{3,11} + 12 R{3,14} + 12 R{3,20}
   + 12 R{4,16} + 12 R{4,31} + 12 R{5,9} + 12 R{5,17} + 12 R{5,33}
   + 12 R{6,8} + 12 R{6,28} + 12 R{6,30} <= 12
 R2_34: 5 R{0,0} + 5 R{0,1} + 5 R{0,2} + 5 R{0,6} + 5 R{0,7} + 5 R{0,8}
   + 5 R{0,9} + 5 R{0,10} + 5 R{0,11} + 5 R{0,12} + 5 R{0,14} + 5 R{0,15}
   + 5 R{0,18} + 5 R{0,20} + 5 R{0,22} + 5 R{0,25} + 5 R{0,28} + 5 R{0,29}
   + 5 R{0,31} + 5 R{0,34} + 5 R{0,36} + 5 R{1,6} + 5 R{1,10} + 5 R{1,23}
   + 5 R{1,26} + 5 R{1,28} + 5 R{1,30} + 5 R{2,18} + 5 R{2,22} + 5 R{3,12}
   + 5 R{3,33} + 5 R{4,22} + 5 R{4,28} + 5 R{6,9} + 5 R{6,11} + 5 R{6,13}
   + 5 R{6,19} + 5 R{6,22} + 5 R{6,26} + 5 R{6,29} + 5 R{6,31} <= 5
 R2_35: 13 R{4,22} + 13 R{6,29} <= 13
 R2_36: 15 R{5,1} + 15 R{5,2} + 15 R{5,3} + 15 R{5,4} + 15 R{5,8}
   + 15 R{5,13} + 15 R{5,14} + 15 R{5,15} + 15 R{5,16} + 15 R{5,19}
   + 15 R{5,22} + 15 R{5,23} + 15 R{5,24} + 15 R{5,28} + 15 R{5,29} <= 16
 R2_37: 5 R{0,27} + 5 R{2,7} + 5 R{2,9} + 5 R{2,14} + 5 R{3,1} + 5 R{3,2}
   + 5 R{3,4} + 5 R{3,5} + 5 R{3,16} + 5 R{3,18} + 5 R{3,22} + 5 R{3,23}
   + 5 R{3,29} + 5 R{3,30} + 5 R{3,32} + 5 R{3,34} + 5 R{5,25} <= 5
 R2_38: <= 0
 R2_39: 15 R{0,0} + 15 R{0,1} + 15 R{0,2} + 15 R{0,22} + 15 R{0,23}
   + 15 R{0,24} + 15 R{0,26} + 15 R{0,27} + 15 R{0,28} + 15 R{0,32}
   + 15 R{0,38} <= 17
 R2_40: 15 R{2,1} + 15 R{2,2} + 15 R{2,3} + 15 R{2,4} + 15 R{2,5}
   + 15 R{2,6} + 15 R{2,11} + 15 R{2,13} + 15 R{2,15} + 15 R{2,20}
   + 15 R{2,23} <= 15
 R2_41: 5 R{0,0} + 5 R{0,1} + 5 R{0,2} + 5 R{0,6} + 5 R{0,7} + 5 R{0,9}
   + 5 R{0,10} + 5 R{0,12} + 5 R{0,15} + 5 R{0,17} + 5 R{0,18} + 5 R{0,19}
   + 5 R{0,21} + 5 R{0,22} + 5 R{0,23} + 5 R{0,24} + 5 R{0,26} + 5 R{0,27}
   + 5 R{0,28} + 5 R{0,30} + 5 R{0,31} + 5 R{0,32} + 5 R{0,35} + 5 R{0,37}
   + 5 R{0,38} + 5 R{0,39} + 5 R{0,40} + 5 R{3,2} + 5 R{3,18} + 5 R{3,25}
   + 5 R{3,34} + 5 R{4,28} + 5 R{6,23} <= 5
 R2_42: 4 R{2,1} + 4 R{2,2} + 4 R{2,3} + 4 R{2,4} + 4 R{2,13} + 4 R{2,20}
   + 4 R{2,23} <= 4
 R2_43: <= 0
 R2_44: <= 0
 R2_45: <= 0
 R2_46: 9 R{0,7} + 9 R{0,9} + 9 R{0,10} + 9 R{0,11} + 9 R{0,12} + 9 R{0,14}
   + 9 R{0,15} + 9 R{0,17} + 9 R{0,19} + 9 R{0,20} + 9 R{0,21} + 9 R{0,25}
   + 9 R{0,29} + 9 R{0,30} + 9 R{0,33} + 9 R{0,34} + 9 R{0,35} + 9 R{0,36}
   + 9 R{0,37} + 9 R{0,39} + 9 R{0,40} + 9 R{4,4} + 9 R{4,10} + 9 R{4,21}
   + 9 R{4,32} + 9 R{6,11} <= 9
 R2_47: 7 R{0,0} + 7 R{0,1} + 7 R{0,2} + 7 R{0,14} + 7 R{0,22} + 7 R{0,23}
   + 7 R{0,24} + 7 R{0,38} + 7 R{5,1} + 7 R{5,2} + 7 R{5,3} + 7 R{5,6}
   + 7 R{5,9} + 7 R{5,10} + 7 R{5,11} + 7 R{5,13} + 7 R{5,14} + 7 R{5,16}
   + 7 R{5,17} + 7 R{5,19} + 7 R{5,20} + 7 R{5,24} + 7 R{5,26} + 7 R{5,28}
   + 7 R{5,30} <= 7
 R2_48: 4 R{0,20} + 4 R{0,29} + 4 R{0,34} + 4 R{0,36} + 4 R{0,40}
   + 4 R{4,1} + 4 R{4,2} + 4 R{4,3} + 4 R{4,4} + 4 R{4,5} + 4 R{4,6}
   + 4 R{4,7} + 4 R{4,8} + 4 R{4,10} + 4 R{4,11} + 4 R{4,12} + 4 R{4,13}
   + 4 R{4,15} + 4 R{4,16} + 4 R{4,17} + 4 R{4,20} + 4 R{4,22} + 4 R{4,23}
   + 4 R{4,24} + 4 R{4,25} + 4 R{4,26} + 4 R{4,28} + 4 R{4,29} + 4 R{4,30}
   + 4 R{4,31} + 4 R{4,32} <= 4
 R2_49: <= 0
 R2_50: <= 0
 R2_51: 11 R{0,9} + 11 R{0,25} + 11 R{1,14} + 11 R{1,15} + 11 R{1,21}
   + 11 R{1,23} + 11 R{1,31} + 11 R{3,9} + 11 R{3,10} + 11 R{3,17}
   + 11 R{3,19} + 11 R{4,1} + 11 R{4,7} + 11 R{4,26} + 11 R{6,32} <= 11
 R2_52: 10 R{4,14} + 10 R{4,27} + 10 R{4,31} <= 10
 R2_53: 13 R{4,1} + 13 R{4,2} + 13 R{4,3} + 13 R{4,4} + 13 R{4,5}
   + 13 R{4,6} + 13 R{4,15} + 13 R{4,18} + 13 R{4,21} + 13 R{4,25}
   + 13 R{4,29} + 13 R{4,30} <= 13
 R2_54: 9 R{3,1} + 9 R{3,2} + 9 R{3,3} + 9 R{3,4} + 9 R{3,5} + 9 R{3,6}
   + 9 R{3,7} + 9 R{3,11} + 9 R{3,12} + 9 R{3,13} + 9 R{3,15} + 9 R{3,16}
   + 9 R{3,18} + 9 R{3,20} + 9 R{3,22} + 9 R{3,23} + 9 R{3,26} + 9 R{3,29}
   + 9 R{3,30} + 9 R{3,32} + 9 R{3,33} + 9 R{3,34} <= 9
 R2_55: 8 R{1,15} + 8 R{3,19} + 8 R{3,21} + 8 R{3,22} + 8 R{6,1} + 8 R{6,2}
   + 8 R{6,4} + 8 R{6,5} + 8 R{6,6} + 8 R{6,7} + 8 R{6,10} + 8 R{6,12}
   + 8 R{6,14} + 8 R{6,15} + 8 R{6,16} + 8 R{6,17} + 8 R{6,18} + 8 R{6,20}
   + 8 R{6,21} + 8 R{6,24} + 8 R{6,26} + 8 R{6,27} + 8 R{6,31} + 8 R{6,32}
   <= 8
 R2_56: 6 R{0,1} + 6 R{0,2} + 6 R{0,9} + 6 R{0,12} + 6 R{0,23} + 6 R{0,25}
   + 6 R{0,29} + 6 R{0,31} + 6 R{0,34} + 6 R{0,36} + 6 R{0,37} + 6 R{1,10}
   + 6 R{1,14} + 6 R{1,15} + 6 R{1,17} + 6 R{1,20} + 6 R{1,21} + 6 R{1,26}
   + 6 R{1,28} + 6 R{2,16} + 6 R{2,24} + 6 R{3,25} + 6 R{4,17} + 6 R{4,20}
   + 6 R{4,22} + 6 R{4,24} + 6 R{4,26} + 6 R{4,28} + 6 R{6,3} + 6 R{6,10}
   + 6 R{6,16} + 6 R{6,19} + 6 R{6,20} + 6 R{6,22} + 6 R{6,24} + 6 R{6,25}
   + 6 R{6,26} + 6 R{6,27} <= 6
 R2_57: <= 0
 R2_58: <= 0
 R2_59: 10 R{0,14} + 10 R{1,15} + 10 R{3,6} + 10 R{3,11} + 10 R{3,14}
   + 10 R{3,15} + 10 R{3,20} + 10 R{4,7} + 10 R{4,8} + 10 R{4,10}
   + 10 R{4,13} + 10 R{4,14} + 10 R{4,16} + 10 R{4,22} + 10 R{4,23}
   + 10 R{4,31} + 10 R{6,6} + 10 R{6,9} + 10 R{6,11} + 10 R{6,13}
   + 10 R{6,29} <= 10
 R2_60: <= 0
 R2_61: 9 R{0,11} + 9 R{0,20} + 9 R{0,29} + 9 R{0,32} + 9 R{0,34}
   + 9 R{0,35} + 9 R{0,36} + 9 R{4,9} + 9 R{4,11} + 9 R{4,12} + 9 R{4,19}
   + 9 R{4,27} + 9 R{6,9} + 9 R{6,11} + 9 R{6,13} + 9 R{6,22} + 9 R{6,29}
   <= 9
 R2_62: <= 0
 R2_63: <= 0
 R2_64: <= 0
 R2_65: 5 R{0,16} + 5 R{0,27} + 5 R{4,32} + 5 R{6,1} + 5 R{6,2} + 5 R{6,3}
   + 5 R{6,4} + 5 R{6,5} + 5 R{6,6} + 5 R{6,7} + 5 R{6,9} + 5 R{6,10}
   + 5 R{6,11} + 5 R{6,12} + 5 R{6,13} + 5 R{6,14} + 5 R{6,15} + 5 R{6,17}
   + 5 R{6,18} + 5 R{6,21} + 5 R{6,23} + 5 R{6,25} + 5 R{6,26} + 5 R{6,27}
   + 5 R{6,29} + 5 R{6,31} + 5 R{6,32} <= 5
 R2_66: 7 R{1,8} + 7 R{1,25} + 7 R{1,30} + 7 R{3,6} + 7 R{3,11} + 7 R{3,12}
   + 7 R{3,14} + 7 R{3,15} + 7 R{3,33} + 7 R{6,1} + 7 R{6,2} + 7 R{6,4}
   + 7 R{6,5} + 7 R{6,7} + 7 R{6,9} + 7 R{6,10} + 7 R{6,11} + 7 R{6,13}
   + 7 R{6,14} + 7 R{6,17} + 7 R{6,20} + 7 R{6,22} + 7 R{6,24} + 7 R{6,26}
   + 7 R{6,28} + 7 R{6,29} + 7 R{6,31} + 7 R{6,32} <= 7
 R2_67: 3 R{0,6} + 3 R{0,7} + 3 R{0,8} + 3 R{0,10} + 3 R{0,15} + 3 R{0,16}
   + 3 R{0,17} + 3 R{0,19} + 3 R{0,21} + 3 R{0,25} + 3 R{0,30} + 3 R{0,37}
   + 3 R{0,39} + 3 R{0,40} + 3 R{4,9} + 3 R{4,11} + 3 R{6,3} + 3 R{6,4}
   + 3 R{6,6} + 3 R{6,14} + 3 R{6,17} + 3 R{6,24} + 3 R{6,25} + 3 R{6,32}
   <= 3
 R2_68: 6 R{1,1} + 6 R{1,2} + 6 R{1,3} + 6 R{1,4} + 6 R{1,5} + 6 R{1,10}
   + 6 R{1,16} + 6 R{1,19} + 6 R{1,28} + 6 R{1,30} + 6 R{3,19} + 6 R{3,21}
   + 6 R{3,25} + 6 R{3,27} + 6 R{3,28} + 6 R{3,31} + 6 R{3,35} + 6 R{5,27}
   + 6 R{6,28} <= 6
 R2_69: 7 R{0,0} + 7 R{0,1} + 7 R{0,2} + 7 R{0,6} + 7 R{0,8} + 7 R{0,12}
   + 7 R{0,14} + 7 R{0,18} + 7 R{0,20} + 7 R{0,23} + 7 R{0,26} + 7 R{0,27}
   + 7 R{0,33} + 7 R{0,38} + 7 R{1,11} + 7 R{2,7} + 7 R{2,9} + 7 R{4,1}
   + 7 R{4,2} + 7 R{4,3} + 7 R{4,4} + 7 R{4,5} + 7 R{4,6} + 7 R{4,8}
   + 7 R{4,9} + 7 R{4,11} + 7 R{4,12} + 7 R{4,14} + 7 R{4,17} + 7 R{4,19}
   + 7 R{4,21} + 7 R{4,25} + 4 R{4,26} + 7 R{4,27} + 7 R{4,29} + 7 R{4,30}
   + 7 R{4,32} <= 7
 R2_70: 11 R{1,1} + 11 R{1,2} <= 11
 R2_71: <= 7
 R2_72: <= 0
 R2_73: 11 R{0,0} + 11 R{0,1} + 11 R{0,2} + 11 R{0,9} + 11 R{0,12}
   + 11 R{0,14} + 11 R{0,18} + 11 R{0,22} + 11 R{0,23} + 11 R{0,24}
   + 11 R{0,26} + 11 R{0,27} + 11 R{0,28} + 11 R{0,31} + 11 R{0,33}
   + 11 R{0,38} <= 11
 R2_74: 5 R{5,1} + 5 R{5,2} + 5 R{5,3} + 5 R{5,4} + 5 R{5,5} + 5 R{5,6}
   + 5 R{5,7} + 5 R{5,8} + 5 R{5,9} + 5 R{5,10} + 5 R{5,11} + 5 R{5,12}
   + 5 R{5,16} + 5 R{5,17} + 5 R{5,18} + 5 R{5,20} + 5 R{5,21} + 5 R{5,22}
   + 5 R{5,24} + 5 R{5,25} + 5 R{5,29} + 5 R{5,30} + 5 R{5,31} + 5 R{5,32}
   + 5 R{5,33} <= 5
 R2_75: 8 R{0,16} + 8 R{6,1} + 8 R{6,2} + 8 R{6,3} + 8 R{6,10} + 8 R{6,12}
   + 8 R{6,15} + 8 R{6,17} + 8 R{6,20} + 8 R{6,24} + 8 R{6,25} + 8 R{6,32}
   <= 8
 R2_76: 12 R{0,4} + 12 R{0,5} + 12 R{2,17} + 12 R{2,18} + 12 R{4,29}
   + 12 R{5,6} + 12 R{5,7} + 12 R{5,11} + 12 R{5,12} + 12 R{5,13}
   + 12 R{5,15} + 12 R{5,20} + 12 R{5,21} + 12 R{5,23} + 12 R{5,26}
   + 12 R{5,27} + 12 R{5,28} + 12 R{5,29} + 5 R{5,32} + 5 R{5,34}
   + 12 R{6,3} + 12 R{6,7} + 12 R{6,8} + 12 R{6,14} + 12 R{6,18}
   + 12 R{6,21} + 12 R{6,23} + 12 R{6,25} + 12 R{6,28} + 12 R{6,30} <= 12
 R2_77: 7 R{0,1} + 7 R{0,2} + 7 R{0,5} + 7 R{0,13} + 7 R{0,15} + 7 R{0,17}
   + 7 R{0,19} + 7 R{0,21} + 7 R{0,24} + 7 R{0,26} + 7 R{0,27} + 7 R{0,30}
   + 7 R{0,33} + 7 R{0,39} + 7 R{1,2} + 7 R{1,4} + 7 R{1,6} + 7 R{1,9}
   + 7 R{1,10} + 7 R{1,12} + 7 R{1,16} + 7 R{1,18} + 7 R{1,19} + 7 R{1,22}
   + 7 R{1,24} + 7 R{1,28} + 7 R{2,2} + 7 R{2,3} + 7 R{2,5} + 7 R{2,8}
   + 7 R{2,10} + 7 R{2,12} + 7 R{2,13} + 7 R{2,17} + 7 R{2,18} + 7 R{2,19}
   + 7 R{2,22} + 7 R{2,24} + 7 R{3,7} + 4 R{3,10} + 7 R{3,13} + 7 R{3,20}
   + 7 R{3,23} + 7 R{3,24} + 7 R{3,26} + 7 R{3,28} + 7 R{4,2} + 7 R{4,3}
   + 7 R{4,5} + 7 R{4,6} + 7 R{4,9} + 7 R{4,13} + 7 R{4,15} + 7 R{4,17}
   + 7 R{4,18} + 7 R{4,19} + 7 R{4,20} + 7 R{4,21} + 7 R{4,23} + 7 R{4,25}
   + 7 R{4,29} + 7 R{4,30} + 7 R{5,2} + 7 R{5,3} + 7 R{5,5} + 7 R{5,7}
   + 7 R{5,9} + 7 R{5,12} + 7 R{5,15} + 7 R{5,17} + 7 R{5,19} + 7 R{5,20}
   + 7 R{5,23} + 7 R{5,24} + 7 R{5,26} + 7 R{5,28} + 7 R{5,33} + 7 R{6,8}
   + 7 R{6,12} + 7 R{6,15} + 7 R{6,16} + 7 R{6,18} + 7 R{6,21} + 7 R{6,23}
   + 7 R{6,27} + 7 R{6,30} <= 7
Bounds
End
